benchmarks_vrp/CMT4/min_c/CMT4_10.vrp
NAME: CMT4_10
TYPE: CVRP
COMMENT: 1028.42 - Cluster Nr.10
DIMENSION: 17
CAPACITY: 200
EDGE_WEIGHT_TYPE: EUC_2D
NODE_COORD_TYPE: TWOD_COORDS
NODE_COORD_SECTION: 
14 61 33
9 57 48
8 62 42
10 52 33
11 58 48
13 55 45
12 56 37
17 49 42
4 56 37
5 65 35
3 53 43
6 35 35
1 47 47
2 64 42
15 50 35
16 52 41
7 56 39
DEPOT_SECTION: 
6
-1
DEMAND_SECTION: 
5 3
14 26
13 13
17 13
12 6
2 9
1 13
15 19
7 36
11 6
8 8
10 11
3 14
6 0
4 10
16 15
9 23
EOF
