benchmarks_vrp/CMT4/min_c/CMT4_10.tour
NAME: CMT4_10 solution
TYPE: TOUR
TOUR_SECTION:
6 15 10 -1
6 1 3 13 9 11 8 2 5 14 4 12 7 16 17 -1
-1
EOF